Version identifier: 22.1.0.0 | 2022-03-09 | 1a383f8ce
CPXPARAM_Threads                                 1
CPXPARAM_MIP_Strategy_VariableSelect             3
CPXPARAM_TimeLimit                               600
Tried aggregator 1 time.
Reduced MIP has 920 rows, 3600 columns, and 20105 nonzeros.
Reduced MIP has 2600 binaries, 1000 generals, 0 SOSs, and 0 indicators.
Presolve time = 0.01 sec. (8.50 ticks)
Found incumbent of value 7.9774412e+74 after 0.03 sec. (21.73 ticks)
Probing time = 0.00 sec. (3.08 ticks)
Tried aggregator 1 time.
Detecting symmetries...
Reduced MIP has 920 rows, 3600 columns, and 20105 nonzeros.
Reduced MIP has 2600 binaries, 1000 generals, 0 SOSs, and 0 indicators.
Presolve time = 0.01 sec. (11.25 ticks)
Probing time = 0.00 sec. (3.08 ticks)
Clique table members: 116.
MIP emphasis: balance optimality and feasibility.
MIP search method: dynamic search.
Parallel mode: none, using 1 thread.
Root relaxation solution time = 0.20 sec. (191.85 ticks)

        Nodes                                         Cuts/
   Node  Left     Objective  IInf  Best Integer    Best Bound    ItCnt     Gap

*     0+    0                       7.97744e+74        0.0000           100.00%
      0     0        0.0000   715   7.97744e+74        0.0000     1849  100.00%
*     0+    0                       1.41230e+74        0.0000           100.00%
Detecting symmetries...
      0     2        0.0000   445   1.41230e+74        0.0000     1849  100.00%
Elapsed time = 2.00 sec. (1778.36 ticks, tree = 0.01 MB, solutions = 2)
      1     3        0.0000   583   1.41230e+74        0.0000     6140  100.00%
      2     4        0.0000   627   1.41230e+74        0.0000     8316  100.00%
      3     5        0.0000   565   1.41230e+74        0.0000    11061  100.00%
      4     6       -0.0000   504   1.41230e+74        0.0000    12359  100.00%
      6     8        0.0000   568   1.41230e+74        0.0000    14723  100.00%
      7     9        0.0000   523   1.41230e+74        0.0000    17534  100.00%
      9    11        0.0000   519   1.41230e+74        0.0000    18485  100.00%
     10    12        0.0000   497   1.41230e+74        0.0000    19118  100.00%
     12    14        0.0000   525   1.41230e+74        0.0000    20849  100.00%
     19    21       -0.0000   426   1.41230e+74        0.0000    26065  100.00%
Elapsed time = 6.31 sec. (6049.47 ticks, tree = 0.14 MB, solutions = 2)
     26    28        0.0000   355   1.41230e+74        0.0000    29514  100.00%
     34    36        0.0000   204   1.41230e+74        0.0000    35242  100.00%
     46    48        0.0000   154   1.41230e+74        0.0000    37531  100.00%
     56    58        0.5000   231   1.41230e+74        0.0000    40972  100.00%
     69    71        1.0000   215   1.41230e+74        0.0000    42936  100.00%
*    70+   70                       2.06239e+35        0.0000           100.00%
*    80+   80                       2.44519e+07        0.0000           100.00%
     83    85       16.0000   159   2.44519e+07        0.0000    44435  100.00%
*    89    83      integral     0       17.0000        0.0000    44806  100.00%
     96    89       -0.0000   256       17.0000        0.0000    46980  100.00%
    108   100        0.2667   292       17.0000        0.0000    49662  100.00%
    121   110        2.0000   255       17.0000        0.0000    52407  100.00%
    137   121       16.0000   319       17.0000        0.0000    54579  100.00%
Elapsed time = 17.04 sec. (16008.95 ticks, tree = 1.06 MB, solutions = 5)
    150   127        0.7143   275       17.0000        0.0000    58299  100.00%
    164   135       -0.0000   343       17.0000        0.0000    60752  100.00%
    178   149        0.3333   314       17.0000        0.0000    62855  100.00%
*   181    76      integral     0        1.0000        0.0000    63087  100.00%
    196    85        0.0000    96        1.0000        0.0000    65783  100.00%
*   205     1      integral     0        0.0000        0.0000    67295    0.00%

Root node processing (before b&c):
  Real time             =    1.99 sec. (1771.17 ticks)
Sequential b&c:
  Real time             =   20.15 sec. (18887.86 ticks)
                          ------------
Total (root+branch&cut) =   22.14 sec. (20659.03 ticks)
Violation-free sequence bound:	100
Unscheduled:	0
Status:	Optimal
Time:	22.14
Sequence:
	19
	5
	12
	17
	5
	12
	14
	5
	6
	14
	12
	10
	2
	14
	6
	5
	19
	1
	5
	17
	1
	16
	17
	2
	16
	19
	3
	10
	14
	0
	16
	15
	9
	5
	15
	9
	18
	15
	0
	8
	13
	2
	11
	13
	12
	11
	4
	1
	8
	4
	3
	8
	13
	6
	11
	13
	1
	11
	15
	1
	8
	15
	2
	16
	19
	3
	10
	14
	1
	5
	17
	12
	16
	17
	6
	16
	19
	0
	5
	19
	1
	10
	4
	9
	5
	4
	9
	5
	15
	9
	10
	13
	7
	18
	4
	9
	5
	13
	3
	8
Violation-free sequence:
	19
	5
	12
	17
	5
	12
	14
	5
	6
	14
	12
	10
	2
	14
	6
	5
	19
	1
	5
	17
	1
	16
	17
	2
	16
	19
	3
	10
	14
	0
	16
	15
	9
	5
	15
	9
	18
	15
	0
	8
	13
	2
	11
	13
	12
	11
	4
	1
	8
	4
	3
	8
	13
	6
	11
	13
	1
	11
	15
	1
	8
	15
	2
	16
	19
	3
	10
	14
	1
	5
	17
	12
	16
	17
	6
	16
	19
	0
	5
	19
	1
	10
	4
	9
	5
	4
	9
	5
	15
	9
	10
	13
	7
	18
	4
	9
	5
	13
	3
	8
